sifdecoder -A pc64.lnx.gfo -st   A0NNDNDL

 Problem name: A0NNDNDL

 Double precision version will be formed

 The objective function uses 2 linear groups
 
 There are 20004 linear equality constraints
 
 There are 15004 free variables
 There are 10000 variables bounded only from below 
 There are 35008 fixed variables
 
 
 File successfully decoded
 CUTEST: tools (double precision version) compiled successfully
 CUTEst: ipopt (double precision version) compiled successfully

******************************************************************************
This program contains Ipopt, a library for large-scale nonlinear optimization.
 Ipopt is released as open source code under the Eclipse Public License (EPL).
         For more information visit http://projects.coin-or.org/Ipopt
******************************************************************************

This is Ipopt version trunk, running with linear solver ma57.

Number of nonzeros in equality constraint Jacobian...:    79995
Number of nonzeros in inequality constraint Jacobian.:        0
Number of nonzeros in Lagrangian Hessian.............:    30004

Total number of variables............................:    25004
                     variables with only lower bounds:    10000
                variables with lower and upper bounds:        0
                     variables with only upper bounds:        0
Total number of equality constraints.................:    20004
Total number of inequality constraints...............:        0
        inequality constraints with only lower bounds:        0
   inequality constraints with lower and upper bounds:        0
        inequality constraints with only upper bounds:        0

iter    objective    inf_pr   inf_du lg(mu)  ||d||  lg(rg) alpha_du alpha_pr  ls
   0  4.9999900e-01 9.92e+01 6.37e-01  -1.0 0.00e+00    -  0.00e+00 0.00e+00   0
   1  4.3423066e-01 9.90e+01 1.04e+00  -1.0 1.75e+02    -  1.02e-03 1.96e-03h  1
   2  4.9225651e-01 9.89e+01 1.03e+00  -1.0 1.80e+02    -  1.68e-03 1.63e-03f  1
   3  6.1131939e-01 9.87e+01 1.03e+00  -1.0 1.46e+02    -  1.70e-03 1.84e-03f  1
   4  7.6559526e-01 9.85e+01 1.03e+00  -1.0 1.50e+02    -  1.97e-03 1.99e-03f  1
   5  9.4894803e-01 9.83e+01 1.03e+00  -1.0 1.20e+02    -  2.01e-03 2.13e-03f  1
   6  1.2620188e+00 9.80e+01 1.32e+00  -1.0 1.48e+02    -  2.53e-03 3.37e-03f  1
   7  1.6664038e+00 9.76e+01 1.72e+00  -1.0 3.12e+02    -  3.29e-03 4.00e-03f  1
   8  2.2044087e+00 9.71e+01 1.72e+00  -1.0 3.81e+02    -  4.31e-03 4.88e-03f  1
   9  3.1951895e+00 9.63e+01 1.73e+00  -1.0 4.07e+02    -  6.46e-03 8.12e-03f  1
iter    objective    inf_pr   inf_du lg(mu)  ||d||  lg(rg) alpha_du alpha_pr  ls
  10  4.5538553e+00 9.54e+01 2.38e+00  -1.0 4.99e+02    -  7.55e-03 9.90e-03f  1
  11  1.0422306e+01 9.21e+01 7.46e+00  -1.0 5.45e+02    -  9.81e-03 3.40e-02f  1
  12  5.8886118e+01 7.76e+01 1.26e+01  -1.0 5.37e+02    -  4.29e-02 1.58e-01f  1
  13  6.9035562e+02 6.89e-13 9.48e+00  -1.0 4.43e+02    -  2.31e-01 1.00e+00f  1
  14  5.0558414e+02 1.50e-12 5.69e+00  -1.0 1.97e+02    -  2.26e-01 4.97e-01f  1
  15  5.0197539e+02 3.66e-13 3.48e+00  -1.0 1.26e+02    -  3.60e-01 4.82e-01f  1
  16  4.9530234e+02 6.64e-13 4.53e+00  -1.0 2.09e+02    -  2.19e-01 1.00e+00f  1
  17  4.9704136e+02 5.33e-13 2.14e+00  -1.0 1.45e+02    -  6.02e-01 1.00e+00f  1
  18  4.9901901e+02 5.43e-13 1.00e-06  -1.0 3.06e+01    -  1.00e+00 1.00e+00f  1
  19  9.7339426e+01 1.08e-13 1.20e-02  -2.5 4.29e+01    -  8.51e-01 8.34e-01f  1
iter    objective    inf_pr   inf_du lg(mu)  ||d||  lg(rg) alpha_du alpha_pr  ls
  20  1.4431895e+01 4.47e-13 2.83e-08  -2.5 1.28e+01    -  1.00e+00 1.00e+00f  1
  21  7.5998420e-01 2.26e-13 1.50e-09  -3.8 2.40e+00    -  1.00e+00 1.00e+00f  1
  22  8.9732067e-03 1.25e-13 1.85e-11  -5.7 1.32e-01    -  1.00e+00 1.00e+00f  1
  23 -2.6070574e-04 4.08e-13 2.66e-14  -8.6 1.43e-03    -  1.00e+00 1.00e+00f  1

Number of Iterations....: 23

                                   (scaled)                 (unscaled)
Objective...............:  -2.6070573901878049e-04   -2.6070573901878049e-04
Dual infeasibility......:   2.6645352591003757e-14    2.6645352591003757e-14
Constraint violation....:   4.0811798385220754e-13    4.0811798385220754e-13
Complementarity.........:   2.5497224929355133e-09    2.5497224929355133e-09
Overall NLP error.......:   2.5497224929355133e-09    2.5497224929355133e-09


Number of objective function evaluations             = 24
Number of objective gradient evaluations             = 24
Number of equality constraint evaluations            = 24
Number of inequality constraint evaluations          = 0
Number of equality constraint Jacobian evaluations   = 24
Number of inequality constraint Jacobian evaluations = 0
Number of Lagrangian Hessian evaluations             = 23
Total CPU secs in IPOPT (w/o function evaluations)   =      2.731
Total CPU secs in NLP function evaluations           =      1.251

EXIT: Optimal Solution Found.

************************ CUTEst statistics ************************


 Package used            :  IPOPT
 Problem                 :  A0NNDNDL  
 # variables             =           60012
 # constraints           =           20004
 # objective functions   =        0.4900000E+02
 # objective gradients   =        0.2500000E+02
 # objective Hessians    =        0.2400000E+02
 # Hessian-vector prdct  =        0.0000000E+00
 # constraints functions =        0.5000000E+02
 # constraints gradients =        0.2600000E+02
 # constraints Hessians  =        0.2400000E+02
 Exit code               =               0
 Final f                 =       -2.6070573901878049D-04
 Bounds feasibility      =        9.7493813166635279D-09
 Set up time             =            0.77 seconds
 Solve time              =            8.36 seconds


******************************************************************

